NAME /Users/henri/Research/solvers/instances/idol-instances/robust/collection/cbp_Subramanyam_et_al_2020/CapBud_N30_5/models/uncertain_technology_matrix/
ROWS
 N  OBJ
 L  capacity
 L  c_5540
 L  c_5541
 L  c_5542
 L  c_5543
 L  c_5544
 L  c_5545
 L  c_5546
 L  c_5547
 L  c_5548
 L  c_5549
 L  c_5550
 L  c_5551
 L  c_5552
 L  c_5553
 L  c_5554
 L  c_5555
 L  c_5556
 L  c_5557
 L  c_5558
 L  c_5559
 L  c_5560
 L  c_5561
 L  c_5562
 L  c_5563
 L  c_5564
 L  c_5565
 L  c_5566
 L  c_5567
 L  c_5568
 L  c_5569
COLUMNS
    MARKER    'MARKER'                 'INTORG'
    x_0        OBJ        -4.36742
    x_0        c_5540     1
    x_0        capacity   0.873484
    x_1        OBJ        -1.95188
    x_1        c_5541     1
    x_1        capacity   0.390376
    x_2        OBJ        -2.46217
    x_2        c_5542     1
    x_2        capacity   0.492435
    x_3        OBJ        -2.76206
    x_3        c_5543     1
    x_3        capacity   0.552411
    x_4        OBJ        -9.03801
    x_4        c_5544     1
    x_4        capacity   1.8076
    x_5        OBJ        -7.60781
    x_5        c_5545     1
    x_5        capacity   1.52156
    x_6        OBJ        -4.4328
    x_6        c_5546     1
    x_6        capacity   0.88656
    x_7        OBJ        -3.31897
    x_7        c_5547     1
    x_7        capacity   0.663793
    x_8        OBJ        -1.60834
    x_8        c_5548     1
    x_8        capacity   0.321668
    x_9        OBJ        -0.0170141
    x_9        c_5549     1
    x_9        capacity   0.00340283
    x_10       OBJ        -5.32602
    x_10       c_5550     1
    x_10       capacity   1.0652
    x_11       OBJ        -9.59939
    x_11       c_5551     1
    x_11       capacity   1.91988
    x_12       OBJ        -9.5176
    x_12       c_5552     1
    x_12       capacity   1.90352
    x_13       OBJ        -6.92964
    x_13       c_5553     1
    x_13       capacity   1.38593
    x_14       OBJ        -8.04132
    x_14       c_5554     1
    x_14       capacity   1.60826
    x_15       OBJ        -9.53693
    x_15       c_5555     1
    x_15       capacity   1.90739
    x_16       OBJ        -0.403009
    x_16       c_5556     1
    x_16       capacity   0.0806018
    x_17       OBJ        -9.56382
    x_17       c_5557     1
    x_17       capacity   1.91276
    x_18       OBJ        -8.31758
    x_18       c_5558     1
    x_18       capacity   1.66352
    x_19       OBJ        -7.62557
    x_19       c_5559     1
    x_19       capacity   1.52511
    x_20       OBJ        -7.74703
    x_20       c_5560     1
    x_20       capacity   1.54941
    x_21       OBJ        -7.60179
    x_21       c_5561     1
    x_21       capacity   1.52036
    x_22       OBJ        -5.13225
    x_22       c_5562     1
    x_22       capacity   1.02645
    x_23       OBJ        -8.13973
    x_23       c_5563     1
    x_23       capacity   1.62795
    x_24       OBJ        -1.60701
    x_24       c_5564     1
    x_24       capacity   0.321403
    x_25       OBJ        -8.37162
    x_25       c_5565     1
    x_25       capacity   1.67432
    x_26       OBJ        -2.06487
    x_26       c_5566     1
    x_26       capacity   0.412973
    x_27       OBJ        -7.92417
    x_27       c_5567     1
    x_27       capacity   1.58483
    x_28       OBJ        -2.04332
    x_28       c_5568     1
    x_28       capacity   0.408664
    x_29       OBJ        -2.3075
    x_29       c_5569     1
    x_29       capacity   0.4615
    y_0        OBJ        -3.49394
    y_0        c_5540     1
    y_0        capacity   0.873484
    y_1        OBJ        -1.5615
    y_1        c_5541     1
    y_1        capacity   0.390376
    y_2        OBJ        -1.96974
    y_2        c_5542     1
    y_2        capacity   0.492435
    y_3        OBJ        -2.20965
    y_3        c_5543     1
    y_3        capacity   0.552411
    y_4        OBJ        -7.23041
    y_4        c_5544     1
    y_4        capacity   1.8076
    y_5        OBJ        -6.08625
    y_5        c_5545     1
    y_5        capacity   1.52156
    y_6        OBJ        -3.54624
    y_6        c_5546     1
    y_6        capacity   0.88656
    y_7        OBJ        -2.65517
    y_7        c_5547     1
    y_7        capacity   0.663793
    y_8        OBJ        -1.28667
    y_8        c_5548     1
    y_8        capacity   0.321668
    y_9        OBJ        -0.0136113
    y_9        c_5549     1
    y_9        capacity   0.00340283
    y_10       OBJ        -4.26081
    y_10       c_5550     1
    y_10       capacity   1.0652
    y_11       OBJ        -7.67952
    y_11       c_5551     1
    y_11       capacity   1.91988
    y_12       OBJ        -7.61408
    y_12       c_5552     1
    y_12       capacity   1.90352
    y_13       OBJ        -5.54371
    y_13       c_5553     1
    y_13       capacity   1.38593
    y_14       OBJ        -6.43306
    y_14       c_5554     1
    y_14       capacity   1.60826
    y_15       OBJ        -7.62954
    y_15       c_5555     1
    y_15       capacity   1.90739
    y_16       OBJ        -0.322407
    y_16       c_5556     1
    y_16       capacity   0.0806018
    y_17       OBJ        -7.65105
    y_17       c_5557     1
    y_17       capacity   1.91276
    y_18       OBJ        -6.65407
    y_18       c_5558     1
    y_18       capacity   1.66352
    y_19       OBJ        -6.10046
    y_19       c_5559     1
    y_19       capacity   1.52511
    y_20       OBJ        -6.19762
    y_20       c_5560     1
    y_20       capacity   1.54941
    y_21       OBJ        -6.08143
    y_21       c_5561     1
    y_21       capacity   1.52036
    y_22       OBJ        -4.1058
    y_22       c_5562     1
    y_22       capacity   1.02645
    y_23       OBJ        -6.51178
    y_23       c_5563     1
    y_23       capacity   1.62795
    y_24       OBJ        -1.28561
    y_24       c_5564     1
    y_24       capacity   0.321403
    y_25       OBJ        -6.6973
    y_25       c_5565     1
    y_25       capacity   1.67432
    y_26       OBJ        -1.65189
    y_26       c_5566     1
    y_26       capacity   0.412973
    y_27       OBJ        -6.33934
    y_27       c_5567     1
    y_27       capacity   1.58483
    y_28       OBJ        -1.63465
    y_28       c_5568     1
    y_28       capacity   0.408664
    y_29       OBJ        -1.846
    y_29       c_5569     1
    y_29       capacity   0.4615
    MARKER    'MARKER'                 'INTEND'
RHS
    RHS       capacity   82.6833
    RHS       c_5540     1
    RHS       c_5541     1
    RHS       c_5542     1
    RHS       c_5543     1
    RHS       c_5544     1
    RHS       c_5545     1
    RHS       c_5546     1
    RHS       c_5547     1
    RHS       c_5548     1
    RHS       c_5549     1
    RHS       c_5550     1
    RHS       c_5551     1
    RHS       c_5552     1
    RHS       c_5553     1
    RHS       c_5554     1
    RHS       c_5555     1
    RHS       c_5556     1
    RHS       c_5557     1
    RHS       c_5558     1
    RHS       c_5559     1
    RHS       c_5560     1
    RHS       c_5561     1
    RHS       c_5562     1
    RHS       c_5563     1
    RHS       c_5564     1
    RHS       c_5565     1
    RHS       c_5566     1
    RHS       c_5567     1
    RHS       c_5568     1
    RHS       c_5569     1
BOUNDS
 LI BND       x_0        0
 UI BND       x_0        1
 LI BND       x_1        0
 UI BND       x_1        1
 LI BND       x_2        0
 UI BND       x_2        1
 LI BND       x_3        0
 UI BND       x_3        1
 LI BND       x_4        0
 UI BND       x_4        1
 LI BND       x_5        0
 UI BND       x_5        1
 LI BND       x_6        0
 UI BND       x_6        1
 LI BND       x_7        0
 UI BND       x_7        1
 LI BND       x_8        0
 UI BND       x_8        1
 LI BND       x_9        0
 UI BND       x_9        1
 LI BND       x_10       0
 UI BND       x_10       1
 LI BND       x_11       0
 UI BND       x_11       1
 LI BND       x_12       0
 UI BND       x_12       1
 LI BND       x_13       0
 UI BND       x_13       1
 LI BND       x_14       0
 UI BND       x_14       1
 LI BND       x_15       0
 UI BND       x_15       1
 LI BND       x_16       0
 UI BND       x_16       1
 LI BND       x_17       0
 UI BND       x_17       1
 LI BND       x_18       0
 UI BND       x_18       1
 LI BND       x_19       0
 UI BND       x_19       1
 LI BND       x_20       0
 UI BND       x_20       1
 LI BND       x_21       0
 UI BND       x_21       1
 LI BND       x_22       0
 UI BND       x_22       1
 LI BND       x_23       0
 UI BND       x_23       1
 LI BND       x_24       0
 UI BND       x_24       1
 LI BND       x_25       0
 UI BND       x_25       1
 LI BND       x_26       0
 UI BND       x_26       1
 LI BND       x_27       0
 UI BND       x_27       1
 LI BND       x_28       0
 UI BND       x_28       1
 LI BND       x_29       0
 UI BND       x_29       1
 LI BND       y_0        0
 UI BND       y_0        1
 LI BND       y_1        0
 UI BND       y_1        1
 LI BND       y_2        0
 UI BND       y_2        1
 LI BND       y_3        0
 UI BND       y_3        1
 LI BND       y_4        0
 UI BND       y_4        1
 LI BND       y_5        0
 UI BND       y_5        1
 LI BND       y_6        0
 UI BND       y_6        1
 LI BND       y_7        0
 UI BND       y_7        1
 LI BND       y_8        0
 UI BND       y_8        1
 LI BND       y_9        0
 UI BND       y_9        1
 LI BND       y_10       0
 UI BND       y_10       1
 LI BND       y_11       0
 UI BND       y_11       1
 LI BND       y_12       0
 UI BND       y_12       1
 LI BND       y_13       0
 UI BND       y_13       1
 LI BND       y_14       0
 UI BND       y_14       1
 LI BND       y_15       0
 UI BND       y_15       1
 LI BND       y_16       0
 UI BND       y_16       1
 LI BND       y_17       0
 UI BND       y_17       1
 LI BND       y_18       0
 UI BND       y_18       1
 LI BND       y_19       0
 UI BND       y_19       1
 LI BND       y_20       0
 UI BND       y_20       1
 LI BND       y_21       0
 UI BND       y_21       1
 LI BND       y_22       0
 UI BND       y_22       1
 LI BND       y_23       0
 UI BND       y_23       1
 LI BND       y_24       0
 UI BND       y_24       1
 LI BND       y_25       0
 UI BND       y_25       1
 LI BND       y_26       0
 UI BND       y_26       1
 LI BND       y_27       0
 UI BND       y_27       1
 LI BND       y_28       0
 UI BND       y_28       1
 LI BND       y_29       0
 UI BND       y_29       1
ENDATA
